100
1000
168
168
167
167
167
166
166
165
165
164
164
164
163
163
162
162
161
161
160
159
158
158
157
156
156
155
155
155
154
154
154
154
153
153
152
152
151
150
149
148
148
147
147
146
145
144
144
144
143
143
143
138
136
135
135
134
133
132
132
131
129
129
129
129
128
127
126
126
126
126
126
125
125
124
124
124
123
123
122
121
121
120
120
120
119
119
119
118
117
117
117
116
116
115
115
115
115
114
114
114
